QPLIB_0681
LGQ
maximize
215 # number of variables
467 # number of constraints
0.0 # default value for linear coefficients in objective
142 # number of non-default linear coefficients in objective
1 -0.45
2 -0.45
3 -0.45
4 -0.67
5 -0.67
6 -0.67
7 -1.03
8 -1.03
9 -1.03
10 -1.75
11 -1.75
12 -1.75
13 -1.57
14 -1.57
15 -1.57
16 -1.05
17 -1.05
18 -1.05
19 -0.13
20 -0.13
21 -0.13
22 -0.47
23 -0.47
24 -0.47
25 -0.34
26 -0.34
27 -0.34
28 8.81
29 8.81
30 9.07
31 9.07
32 -0.6
33 -0.6
34 -0.6
35 -0.65
36 -0.65
37 -0.65
38 -0.75
39 -0.75
40 -0.75
41 9.52
42 9.52
43 9.52
44 8.69
45 8.69
46 -0.83
47 -0.83
48 -0.83
49 -1.0
50 -1.0
51 -1.0
52 -0.44
53 -0.44
54 -0.44
55 8.64
56 8.64
57 8.64
58 8.83
59 8.83
60 -0.87
61 -0.87
62 -0.87
63 -0.4
64 -0.4
65 -0.4
66 -0.8
67 -0.8
68 -0.8
69 8.69
70 8.69
71 9.34
72 9.34
89 -0.2
90 -0.2
91 -0.2
92 -0.62
93 -0.62
94 -0.62
95 -0.35
96 -0.35
97 -0.35
98 -0.76
99 -0.76
100 -0.76
101 -0.38
102 -0.38
103 -0.38
104 -0.08
105 -0.08
106 -0.08
107 -0.93
108 -0.93
109 -0.93
110 -0.57
111 -0.57
112 -0.57
113 -0.01
114 -0.01
115 -0.01
116 -0.16
117 -0.16
118 -0.31
119 -0.31
120 -0.17
121 -0.17
122 -0.17
123 -0.26
124 -0.26
125 -0.26
126 -0.69
127 -0.69
128 -0.69
129 -0.45
130 -0.45
131 -0.45
132 -0.23
133 -0.23
134 -0.15
135 -0.15
136 -0.15
137 -0.54
138 -0.54
139 -0.54
140 -0.08
141 -0.08
142 -0.08
143 -0.11
144 -0.11
145 -0.11
146 -0.82
147 -0.82
148 -0.82
149 -0.08
150 -0.08
151 -0.08
152 -0.26
153 -0.26
154 -0.26
155 -0.43
156 -0.43
157 -0.18
158 -0.18
0.0 # objective constant
336 # number of quadratic terms in all constraints
420 1 1 2.0
421 29288161 29282017 2.0
422 1 1 2.0
423 29289905 29282897 2.0
424 1 1 2.0
425 29818833 29283777 2.0
426 1 1 2.0
427 29284657 29233825 2.0
428 1 1 2.0
429 29827441 29285537 2.0
430 1 1 2.0
431 29842465 29286417 2.0
432 1 1 2.0
433 29846225 29288161 2.0
434 1 1 2.0
435 29849985 29289905 2.0
436 1 1 2.0
436 1 1 2.0
436 1 1 2.0
436 1 1 2.0
436 1 1 2.0
436 1 1 -2.0
436 1 1 -2.0
436 1 1 -2.0
436 1 1 -2.0
436 1 1 2.0
437 29853745 29818833 2.0
437 29853745 29818833 2.0
437 29853745 29818833 2.0
437 29853745 29818833 2.0
437 29853745 29818833 2.0
437 29853745 29818833 -2.0
437 29853745 29818833 -2.0
437 29853745 29818833 -2.0
437 29853745 29818833 2.0
437 29853745 29818833 -2.0
438 1 1 -2.0
438 1 1 2.0
438 1 1 2.0
438 1 1 2.0
438 1 1 2.0
438 1 1 2.0
438 1 1 -2.0
438 1 1 -2.0
438 1 1 -2.0
438 1 1 2.0
439 29857505 29233825 -2.0
439 29857505 29233825 2.0
439 29857505 29233825 2.0
439 29857505 29233825 2.0
439 29857505 29233825 2.0
439 29857505 29233825 2.0
439 29857505 29233825 -2.0
439 29857505 29233825 -2.0
439 29857505 29233825 2.0
439 29857505 29233825 -2.0
440 1 1 -2.0
440 1 1 -2.0
440 1 1 2.0
440 1 1 2.0
440 1 1 2.0
440 1 1 2.0
440 1 1 2.0
440 1 1 -2.0
440 1 1 -2.0
440 1 1 2.0
441 29859249 29827441 -2.0
441 29859249 29827441 -2.0
441 29859249 29827441 2.0
441 29859249 29827441 2.0
441 29859249 29827441 2.0
441 29859249 29827441 2.0
441 29859249 29827441 2.0
441 29859249 29827441 -2.0
441 29859249 29827441 2.0
441 29859249 29827441 -2.0
442 1 1 -2.0
442 1 1 -2.0
442 1 1 -2.0
442 1 1 2.0
442 1 1 2.0
442 1 1 2.0
442 1 1 2.0
442 1 1 2.0
442 1 1 -2.0
442 1 1 2.0
443 29862737 29842465 -2.0
443 29862737 29842465 -2.0
443 29862737 29842465 -2.0
443 29862737 29842465 2.0
443 29862737 29842465 2.0
443 29862737 29842465 2.0
443 29862737 29842465 2.0
443 29862737 29842465 2.0
443 29862737 29842465 2.0
443 29862737 29842465 -2.0
444 1 1 2.0
444 1 1 2.0
444 1 1 2.0
444 1 1 2.0
444 1 1 2.0
444 1 1 -2.0
444 1 1 -2.0
444 1 1 -2.0
444 1 1 -2.0
444 1 1 2.0
445 29864481 29846225 2.0
445 29864481 29846225 2.0
445 29864481 29846225 2.0
445 29864481 29846225 2.0
445 29864481 29846225 2.0
445 29864481 29846225 -2.0
445 29864481 29846225 -2.0
445 29864481 29846225 -2.0
445 29864481 29846225 2.0
445 29864481 29846225 -2.0
446 1 1 -2.0
446 1 1 2.0
446 1 1 2.0
446 1 1 2.0
446 1 1 2.0
446 1 1 2.0
446 1 1 -2.0
446 1 1 -2.0
446 1 1 -2.0
446 1 1 2.0
447 29867105 29849985 -2.0
447 29867105 29849985 2.0
447 29867105 29849985 2.0
447 29867105 29849985 2.0
447 29867105 29849985 2.0
447 29867105 29849985 2.0
447 29867105 29849985 -2.0
447 29867105 29849985 -2.0
447 29867105 29849985 2.0
447 29867105 29849985 -2.0
448 1 1 -2.0
448 1 1 -2.0
448 1 1 2.0
448 1 1 2.0
448 1 1 2.0
448 1 1 2.0
448 1 1 2.0
448 1 1 -2.0
448 1 1 -2.0
448 1 1 2.0
449 29867105 29853745 -2.0
449 29867105 29853745 -2.0
449 29867105 29853745 2.0
449 29867105 29853745 2.0
449 29867105 29853745 2.0
449 29867105 29853745 2.0
449 29867105 29853745 2.0
449 29867105 29853745 -2.0
449 29867105 29853745 2.0
449 29867105 29853745 -2.0
450 1 1 -2.0
450 1 1 -2.0
450 1 1 -2.0
450 1 1 2.0
450 1 1 2.0
450 1 1 2.0
450 1 1 2.0
450 1 1 2.0
450 1 1 -2.0
450 1 1 2.0
451 29857505 1 -2.0
451 29857505 1 -2.0
451 29857505 1 -2.0
451 29857505 1 2.0
451 29857505 1 2.0
451 29857505 1 2.0
451 29857505 1 2.0
451 29857505 1 2.0
451 29857505 1 2.0
451 29857505 1 -2.0
452 1 1 2.0
452 1 1 2.0
452 1 1 2.0
452 1 1 2.0
452 1 1 2.0
452 1 1 -2.0
452 1 1 -2.0
452 1 1 -2.0
452 1 1 -2.0
452 1 1 2.0
453 29859249 1 2.0
453 29859249 1 2.0
453 29859249 1 2.0
453 29859249 1 2.0
453 29859249 1 2.0
453 29859249 1 -2.0
453 29859249 1 -2.0
453 29859249 1 -2.0
453 29859249 1 2.0
453 29859249 1 -2.0
454 1 1 -2.0
454 1 1 2.0
454 1 1 2.0
454 1 1 2.0
454 1 1 2.0
454 1 1 2.0
454 1 1 -2.0
454 1 1 -2.0
454 1 1 -2.0
454 1 1 2.0
455 29862737 29189425 -2.0
455 29862737 29189425 2.0
455 29862737 29189425 2.0
455 29862737 29189425 2.0
455 29862737 29189425 2.0
455 29862737 29189425 2.0
455 29862737 29189425 -2.0
455 29862737 29189425 -2.0
455 29862737 29189425 2.0
455 29862737 29189425 -2.0
456 1 1 -2.0
456 1 1 -2.0
456 1 1 2.0
456 1 1 2.0
456 1 1 2.0
456 1 1 2.0
456 1 1 2.0
456 1 1 -2.0
456 1 1 -2.0
456 1 1 2.0
457 29864481 0 -2.0
457 29864481 0 -2.0
457 29864481 0 2.0
457 29864481 0 2.0
457 29864481 0 2.0
457 29864481 0 2.0
457 29864481 0 2.0
457 29864481 0 -2.0
457 29864481 0 2.0
457 29864481 0 -2.0
458 1 0 -2.0
458 1 0 -2.0
458 1 0 -2.0
458 1 0 2.0
458 1 0 2.0
458 1 0 2.0
458 1 0 2.0
458 1 0 2.0
458 1 0 -2.0
458 1 0 2.0
459 29867105 29189537 -2.0
459 29867105 29189537 -2.0
459 29867105 29189537 -2.0
459 29867105 29189537 2.0
459 29867105 29189537 2.0
459 29867105 29189537 2.0
459 29867105 29189537 2.0
459 29867105 29189537 2.0
459 29867105 29189537 2.0
459 29867105 29189537 -2.0
460 1 1 -2.0
460 1 1 2.0
460 1 1 2.0
460 1 1 2.0
460 1 1 2.0
460 1 1 2.0
460 1 1 -2.0
460 1 1 -2.0
460 1 1 -2.0
460 1 1 2.0
461 29867105 29189441 -2.0
461 29867105 29189441 2.0
461 29867105 29189441 2.0
461 29867105 29189441 2.0
461 29867105 29189441 2.0
461 29867105 29189441 2.0
461 29867105 29189441 -2.0
461 29867105 29189441 -2.0
461 29867105 29189441 2.0
461 29867105 29189441 -2.0
462 1 1 -2.0
462 1 1 -2.0
462 1 1 2.0
462 1 1 2.0
462 1 1 2.0
462 1 1 2.0
462 1 1 2.0
462 1 1 -2.0
462 1 1 -2.0
462 1 1 2.0
463 1 1 -2.0
463 1 1 -2.0
463 1 1 2.0
463 1 1 2.0
463 1 1 2.0
463 1 1 2.0
463 1 1 2.0
463 1 1 -2.0
463 1 1 2.0
463 1 1 -2.0
464 1 1 -2.0
464 1 1 -2.0
464 1 1 -2.0
464 1 1 2.0
464 1 1 2.0
464 1 1 2.0
464 1 1 2.0
464 1 1 2.0
464 1 1 -2.0
464 1 1 2.0
465 29189505 1 -2.0
465 29189505 1 -2.0
465 29189505 1 -2.0
465 29189505 1 2.0
465 29189505 1 2.0
465 29189505 1 2.0
465 29189505 1 2.0
465 29189505 1 2.0
465 29189505 1 2.0
465 29189505 1 -2.0
466 1 1 2.0
466 1 1 2.0
466 1 1 2.0
466 1 1 2.0
466 1 1 2.0
466 1 1 -2.0
466 1 1 -2.0
466 1 1 -2.0
466 1 1 -2.0
466 1 1 2.0
467 29189425 2112 2.0
467 29189425 2112 2.0
467 29189425 2112 2.0
467 29189425 2112 2.0
467 29189425 2112 2.0
467 29189425 2112 -2.0
467 29189425 2112 -2.0
467 29189425 2112 -2.0
467 29189425 2112 2.0
467 29189425 2112 -2.0
1135 # number of linear terms in all constraints
1 1 1.0
1 4 1.0
1 7 1.0
1 159 1.0
2 10 1.0
2 13 1.0
2 16 1.0
2 160 1.0
3 10 -1.0
3 19 1.0
3 22 1.0
3 25 1.0
3 32 -1.0
3 46 -1.0
3 60 -1.0
3 161 1.0
4 1 -1.0
4 13 -1.0
4 19 -1.0
4 32 1.0
4 35 1.0
4 38 1.0
4 41 1.0
4 49 -1.0
4 63 -1.0
4 162 1.0
5 4 -1.0
5 16 -1.0
5 22 -1.0
5 35 -1.0
5 46 1.0
5 49 1.0
5 52 1.0
5 55 1.0
5 66 -1.0
5 163 1.0
6 7 -1.0
6 25 -1.0
6 38 -1.0
6 52 -1.0
6 60 1.0
6 63 1.0
6 66 1.0
6 164 1.0
7 41 -1.0
7 55 -1.0
7 165 1.0
8 2 1.0
8 5 1.0
8 8 1.0
8 159 -1.0
8 166 1.0
9 3 1.0
9 6 1.0
9 9 1.0
9 166 -1.0
9 167 1.0
10 11 1.0
10 14 1.0
10 17 1.0
10 160 -1.0
10 168 1.0
11 12 1.0
11 15 1.0
11 18 1.0
11 168 -1.0
11 169 1.0
12 11 -1.0
12 20 1.0
12 23 1.0
12 26 1.0
12 28 1.0
12 30 1.0
12 33 -1.0
12 47 -1.0
12 61 -1.0
12 161 -1.0
12 170 1.0
13 12 -1.0
13 21 1.0
13 24 1.0
13 27 1.0
13 29 1.0
13 31 1.0
13 34 -1.0
13 48 -1.0
13 62 -1.0
13 170 -1.0
13 171 1.0
14 2 -1.0
14 14 -1.0
14 20 -1.0
14 33 1.0
14 36 1.0
14 39 1.0
14 42 1.0
14 44 1.0
14 50 -1.0
14 64 -1.0
14 162 -1.0
14 172 1.0
15 3 -1.0
15 15 -1.0
15 21 -1.0
15 34 1.0
15 37 1.0
15 40 1.0
15 43 1.0
15 45 1.0
15 51 -1.0
15 65 -1.0
15 172 -1.0
15 173 1.0
16 5 -1.0
16 17 -1.0
16 23 -1.0
16 36 -1.0
16 47 1.0
16 50 1.0
16 53 1.0
16 56 1.0
16 58 1.0
16 67 -1.0
16 163 -1.0
16 174 1.0
17 6 -1.0
17 18 -1.0
17 24 -1.0
17 37 -1.0
17 48 1.0
17 51 1.0
17 54 1.0
17 57 1.0
17 59 1.0
17 68 -1.0
17 174 -1.0
17 175 1.0
18 8 -1.0
18 26 -1.0
18 39 -1.0
18 53 -1.0
18 61 1.0
18 64 1.0
18 67 1.0
18 69 1.0
18 71 1.0
18 164 -1.0
18 176 1.0
19 9 -1.0
19 27 -1.0
19 40 -1.0
19 54 -1.0
19 62 1.0
19 65 1.0
19 68 1.0
19 70 1.0
19 72 1.0
19 176 -1.0
19 177 1.0
20 28 -1.0
20 42 -1.0
20 56 -1.0
20 69 -1.0
20 165 -1.0
20 178 1.0
21 29 -1.0
21 43 -1.0
21 57 -1.0
21 70 -1.0
21 178 -1.0
21 179 1.0
22 30 -1.0
22 44 -1.0
22 58 -1.0
22 71 -1.0
22 180 1.0
23 31 -1.0
23 45 -1.0
23 59 -1.0
23 72 -1.0
23 180 -1.0
23 181 1.0
24 1 1.0
24 89 -1.0
25 2 1.0
25 90 -1.0
26 3 1.0
26 91 -1.0
27 4 1.0
27 92 -1.0
28 5 1.0
28 93 -1.0
29 6 1.0
29 94 -1.0
30 7 1.0
30 95 -1.0
31 8 1.0
31 96 -1.0
32 9 1.0
32 97 -1.0
33 10 1.0
33 98 -1.0
34 11 1.0
34 99 -1.0
35 12 1.0
35 100 -1.0
36 13 1.0
36 101 -1.0
37 14 1.0
37 102 -1.0
38 15 1.0
38 103 -1.0
39 16 1.0
39 104 -1.0
40 17 1.0
40 105 -1.0
41 18 1.0
41 106 -1.0
42 19 1.0
42 107 -1.0
43 20 1.0
43 108 -1.0
44 21 1.0
44 109 -1.0
45 22 1.0
45 110 -1.0
46 23 1.0
46 111 -1.0
47 24 1.0
47 112 -1.0
48 25 1.0
48 113 -1.0
49 26 1.0
49 114 -1.0
50 27 1.0
50 115 -1.0
51 28 1.0
51 116 -1.0
52 29 1.0
52 117 -1.0
53 30 1.0
53 118 -1.0
54 31 1.0
54 119 -1.0
55 32 1.0
55 120 -1.0
56 33 1.0
56 121 -1.0
57 34 1.0
57 122 -1.0
58 35 1.0
58 123 -1.0
59 36 1.0
59 124 -1.0
60 37 1.0
60 125 -1.0
61 38 1.0
61 126 -1.0
62 39 1.0
62 127 -1.0
63 40 1.0
63 128 -1.0
64 41 1.0
64 129 -1.0
65 42 1.0
65 130 -1.0
66 43 1.0
66 131 -1.0
67 44 1.0
67 132 -1.0
68 45 1.0
68 133 -1.0
69 46 1.0
69 134 -1.0
70 47 1.0
70 135 -1.0
71 48 1.0
71 136 -1.0
72 49 1.0
72 137 -1.0
73 50 1.0
73 138 -1.0
74 51 1.0
74 139 -1.0
75 52 1.0
75 140 -1.0
76 53 1.0
76 141 -1.0
77 54 1.0
77 142 -1.0
78 55 1.0
78 143 -1.0
79 56 1.0
79 144 -1.0
80 57 1.0
80 145 -1.0
81 58 1.0
81 182 -1.0
82 59 1.0
82 183 -1.0
83 60 1.0
83 146 -1.0
84 61 1.0
84 147 -1.0
85 62 1.0
85 148 -1.0
86 63 1.0
86 149 -1.0
87 64 1.0
87 150 -1.0
88 65 1.0
88 151 -1.0
89 66 1.0
89 152 -1.0
90 67 1.0
90 153 -1.0
91 68 1.0
91 154 -1.0
92 69 1.0
92 155 -1.0
93 70 1.0
93 156 -1.0
94 71 1.0
94 157 -1.0
95 72 1.0
95 158 -1.0
96 118 0.1
96 184 -1.0
97 119 0.1
97 185 -1.0
98 132 0.1
98 186 -1.0
99 133 0.1
99 187 -1.0
100 182 0.1
100 188 -1.0
101 183 0.1
101 189 -1.0
102 157 0.1
102 190 -1.0
103 158 0.1
103 191 -1.0
104 116 0.5
104 192 -1.0
105 117 0.5
105 193 -1.0
106 118 0.1
106 192 -1.0
107 119 0.1
107 193 -1.0
108 130 0.5
108 194 -1.0
109 131 0.5
109 195 -1.0
110 132 0.1
110 194 -1.0
111 133 0.1
111 195 -1.0
112 144 0.5
112 196 -1.0
113 145 0.5
113 197 -1.0
114 182 0.1
114 196 -1.0
115 183 0.1
115 197 -1.0
116 155 0.5
116 198 -1.0
117 156 0.5
117 199 -1.0
118 157 0.1
118 198 -1.0
119 158 0.1
119 199 -1.0
120 116 0.05
120 200 -1.0
121 117 0.05
121 201 -1.0
122 118 0.13
122 200 -1.0
123 119 0.13
123 201 -1.0
124 130 0.05
124 202 -1.0
125 131 0.05
125 203 -1.0
126 132 0.13
126 202 -1.0
127 133 0.13
127 203 -1.0
128 144 0.05
128 204 -1.0
129 145 0.05
129 205 -1.0
130 182 0.13
130 204 -1.0
131 183 0.13
131 205 -1.0
132 155 0.05
132 206 -1.0
133 156 0.05
133 207 -1.0
134 157 0.13
134 206 -1.0
135 158 0.13
135 207 -1.0
136 116 0.48
136 208 -1.0
137 117 0.48
137 209 -1.0
138 118 0.09
138 208 -1.0
139 119 0.09
139 209 -1.0
140 130 0.48
140 210 -1.0
141 131 0.48
141 211 -1.0
142 132 0.09
142 210 -1.0
143 133 0.09
143 211 -1.0
144 144 0.48
144 212 -1.0
145 145 0.48
145 213 -1.0
146 182 0.09
146 212 -1.0
147 183 0.09
147 213 -1.0
148 155 0.48
148 214 -1.0
149 156 0.48
149 215 -1.0
150 157 0.09
150 214 -1.0
151 158 0.09
151 215 -1.0
152 118 -0.2
152 192 -1.0
153 119 -0.2
153 193 -1.0
154 132 -0.2
154 194 -1.0
155 133 -0.2
155 195 -1.0
156 182 -0.2
156 196 -1.0
157 183 -0.2
157 197 -1.0
158 157 -0.2
158 198 -1.0
159 158 -0.2
159 199 -1.0
160 116 -0.05
160 200 -1.0
161 117 -0.05
161 201 -1.0
162 130 -0.05
162 202 -1.0
163 131 -0.05
163 203 -1.0
164 144 -0.05
164 204 -1.0
165 145 -0.05
165 205 -1.0
166 155 -0.05
166 206 -1.0
167 156 -0.05
167 207 -1.0
168 118 -0.12
168 208 -1.0
169 119 -0.12
169 209 -1.0
170 132 -0.12
170 210 -1.0
171 133 -0.12
171 211 -1.0
172 182 -0.12
172 212 -1.0
173 183 -0.12
173 213 -1.0
174 157 -0.12
174 214 -1.0
175 158 -0.12
175 215 -1.0
176 98 1.0
176 107 1.0
177 99 1.0
177 108 1.0
178 100 1.0
178 109 1.0
179 98 1.0
179 110 1.0
180 99 1.0
180 111 1.0
181 100 1.0
181 112 1.0
182 98 1.0
182 113 1.0
183 99 1.0
183 114 1.0
184 100 1.0
184 115 1.0
185 99 1.0
185 116 1.0
186 100 1.0
186 117 1.0
187 99 1.0
187 118 1.0
188 100 1.0
188 119 1.0
189 107 1.0
189 120 1.0
190 108 1.0
190 121 1.0
191 109 1.0
191 122 1.0
192 110 1.0
192 120 1.0
193 111 1.0
193 121 1.0
194 112 1.0
194 122 1.0
195 113 1.0
195 120 1.0
196 114 1.0
196 121 1.0
197 115 1.0
197 122 1.0
198 116 1.0
198 121 1.0
199 117 1.0
199 122 1.0
200 118 1.0
200 121 1.0
201 119 1.0
201 122 1.0
202 107 1.0
202 134 1.0
203 108 1.0
203 135 1.0
204 109 1.0
204 136 1.0
205 110 1.0
205 134 1.0
206 111 1.0
206 135 1.0
207 112 1.0
207 136 1.0
208 113 1.0
208 134 1.0
209 114 1.0
209 135 1.0
210 115 1.0
210 136 1.0
211 116 1.0
211 135 1.0
212 117 1.0
212 136 1.0
213 118 1.0
213 135 1.0
214 119 1.0
214 136 1.0
215 107 1.0
215 146 1.0
216 108 1.0
216 147 1.0
217 109 1.0
217 148 1.0
218 110 1.0
218 146 1.0
219 111 1.0
219 147 1.0
220 112 1.0
220 148 1.0
221 113 1.0
221 146 1.0
222 114 1.0
222 147 1.0
223 115 1.0
223 148 1.0
224 116 1.0
224 147 1.0
225 117 1.0
225 148 1.0
226 118 1.0
226 147 1.0
227 119 1.0
227 148 1.0
228 89 1.0
228 120 1.0
229 90 1.0
229 121 1.0
230 91 1.0
230 122 1.0
231 89 1.0
231 123 1.0
232 90 1.0
232 124 1.0
233 91 1.0
233 125 1.0
234 89 1.0
234 126 1.0
235 90 1.0
235 127 1.0
236 91 1.0
236 128 1.0
237 89 1.0
237 129 1.0
238 90 1.0
238 130 1.0
239 91 1.0
239 131 1.0
240 90 1.0
240 132 1.0
241 91 1.0
241 133 1.0
242 101 1.0
242 120 1.0
243 102 1.0
243 121 1.0
244 103 1.0
244 122 1.0
245 101 1.0
245 123 1.0
246 102 1.0
246 124 1.0
247 103 1.0
247 125 1.0
248 101 1.0
248 126 1.0
249 102 1.0
249 127 1.0
250 103 1.0
250 128 1.0
251 101 1.0
251 129 1.0
252 102 1.0
252 130 1.0
253 103 1.0
253 131 1.0
254 102 1.0
254 132 1.0
255 103 1.0
255 133 1.0
256 107 1.0
256 120 1.0
257 108 1.0
257 121 1.0
258 109 1.0
258 122 1.0
259 107 1.0
259 123 1.0
260 108 1.0
260 124 1.0
261 109 1.0
261 125 1.0
262 107 1.0
262 126 1.0
263 108 1.0
263 127 1.0
264 109 1.0
264 128 1.0
265 107 1.0
265 129 1.0
266 108 1.0
266 130 1.0
267 109 1.0
267 131 1.0
268 108 1.0
268 132 1.0
269 109 1.0
269 133 1.0
270 120 1.0
270 137 1.0
271 121 1.0
271 138 1.0
272 122 1.0
272 139 1.0
273 123 1.0
273 137 1.0
274 124 1.0
274 138 1.0
275 125 1.0
275 139 1.0
276 126 1.0
276 137 1.0
277 127 1.0
277 138 1.0
278 128 1.0
278 139 1.0
279 129 1.0
279 137 1.0
280 130 1.0
280 138 1.0
281 131 1.0
281 139 1.0
282 132 1.0
282 138 1.0
283 133 1.0
283 139 1.0
284 120 1.0
284 149 1.0
285 121 1.0
285 150 1.0
286 122 1.0
286 151 1.0
287 123 1.0
287 149 1.0
288 124 1.0
288 150 1.0
289 125 1.0
289 151 1.0
290 126 1.0
290 149 1.0
291 127 1.0
291 150 1.0
292 128 1.0
292 151 1.0
293 129 1.0
293 149 1.0
294 130 1.0
294 150 1.0
295 131 1.0
295 151 1.0
296 132 1.0
296 150 1.0
297 133 1.0
297 151 1.0
298 92 1.0
298 134 1.0
299 93 1.0
299 135 1.0
300 94 1.0
300 136 1.0
301 92 1.0
301 137 1.0
302 93 1.0
302 138 1.0
303 94 1.0
303 139 1.0
304 92 1.0
304 140 1.0
305 93 1.0
305 141 1.0
306 94 1.0
306 142 1.0
307 92 1.0
307 143 1.0
308 93 1.0
308 144 1.0
309 94 1.0
309 145 1.0
310 93 1.0
310 182 1.0
311 94 1.0
311 183 1.0
312 104 1.0
312 134 1.0
313 105 1.0
313 135 1.0
314 106 1.0
314 136 1.0
315 104 1.0
315 137 1.0
316 105 1.0
316 138 1.0
317 106 1.0
317 139 1.0
318 104 1.0
318 140 1.0
319 105 1.0
319 141 1.0
320 106 1.0
320 142 1.0
321 104 1.0
321 143 1.0
322 105 1.0
322 144 1.0
323 106 1.0
323 145 1.0
324 105 1.0
324 182 1.0
325 106 1.0
325 183 1.0
326 110 1.0
326 134 1.0
327 111 1.0
327 135 1.0
328 112 1.0
328 136 1.0
329 110 1.0
329 137 1.0
330 111 1.0
330 138 1.0
331 112 1.0
331 139 1.0
332 110 1.0
332 140 1.0
333 111 1.0
333 141 1.0
334 112 1.0
334 142 1.0
335 110 1.0
335 143 1.0
336 111 1.0
336 144 1.0
337 112 1.0
337 145 1.0
338 111 1.0
338 182 1.0
339 112 1.0
339 183 1.0
340 123 1.0
340 134 1.0
341 124 1.0
341 135 1.0
342 125 1.0
342 136 1.0
343 123 1.0
343 137 1.0
344 124 1.0
344 138 1.0
345 125 1.0
345 139 1.0
346 123 1.0
346 140 1.0
347 124 1.0
347 141 1.0
348 125 1.0
348 142 1.0
349 123 1.0
349 143 1.0
350 124 1.0
350 144 1.0
351 125 1.0
351 145 1.0
352 124 1.0
352 182 1.0
353 125 1.0
353 183 1.0
354 134 1.0
354 152 1.0
355 135 1.0
355 153 1.0
356 136 1.0
356 154 1.0
357 137 1.0
357 152 1.0
358 138 1.0
358 153 1.0
359 139 1.0
359 154 1.0
360 140 1.0
360 152 1.0
361 141 1.0
361 153 1.0
362 142 1.0
362 154 1.0
363 143 1.0
363 152 1.0
364 144 1.0
364 153 1.0
365 145 1.0
365 154 1.0
366 153 1.0
366 182 1.0
367 154 1.0
367 183 1.0
368 95 1.0
368 146 1.0
369 96 1.0
369 147 1.0
370 97 1.0
370 148 1.0
371 95 1.0
371 149 1.0
372 96 1.0
372 150 1.0
373 97 1.0
373 151 1.0
374 95 1.0
374 152 1.0
375 96 1.0
375 153 1.0
376 97 1.0
376 154 1.0
377 96 1.0
377 155 1.0
378 97 1.0
378 156 1.0
379 96 1.0
379 157 1.0
380 97 1.0
380 158 1.0
381 113 1.0
381 146 1.0
382 114 1.0
382 147 1.0
383 115 1.0
383 148 1.0
384 113 1.0
384 149 1.0
385 114 1.0
385 150 1.0
386 115 1.0
386 151 1.0
387 113 1.0
387 152 1.0
388 114 1.0
388 153 1.0
389 115 1.0
389 154 1.0
390 114 1.0
390 155 1.0
391 115 1.0
391 156 1.0
392 114 1.0
392 157 1.0
393 115 1.0
393 158 1.0
394 126 1.0
394 146 1.0
395 127 1.0
395 147 1.0
396 128 1.0
396 148 1.0
397 126 1.0
397 149 1.0
398 127 1.0
398 150 1.0
399 128 1.0
399 151 1.0
400 126 1.0
400 152 1.0
401 127 1.0
401 153 1.0
402 128 1.0
402 154 1.0
403 127 1.0
403 155 1.0
404 128 1.0
404 156 1.0
405 127 1.0
405 157 1.0
406 128 1.0
406 158 1.0
407 140 1.0
407 146 1.0
408 141 1.0
408 147 1.0
409 142 1.0
409 148 1.0
410 140 1.0
410 149 1.0
411 141 1.0
411 150 1.0
412 142 1.0
412 151 1.0
413 140 1.0
413 152 1.0
414 141 1.0
414 153 1.0
415 142 1.0
415 154 1.0
416 141 1.0
416 155 1.0
417 142 1.0
417 156 1.0
418 141 1.0
418 157 1.0
419 142 1.0
419 158 1.0
420 10 -0.9
420 19 0.7
420 22 0.7
420 25 0.7
420 32 -0.8
420 46 -0.7
420 60 -0.7
421 1 -0.7
421 13 -0.9
421 19 -0.7
421 32 0.8
421 35 0.8
421 38 0.8
421 41 0.8
421 49 -0.7
421 63 -0.7
422 4 -0.7
422 16 -0.9
422 22 -0.7
422 35 -0.8
422 46 0.7
422 49 0.7
422 52 0.7
422 55 0.7
422 66 -0.7
423 7 -0.7
423 25 -0.7
423 38 -0.8
423 52 -0.7
423 60 0.7
423 63 0.7
423 66 0.7
424 10 -0.01
424 32 -0.9
424 46 -0.8
424 60 -0.3
425 1 -0.2
425 13 -0.01
425 32 0.9
425 35 0.9
425 38 0.9
425 41 0.9
425 49 -0.8
425 63 -0.3
426 4 -0.2
426 16 -0.01
426 35 -0.9
426 46 0.8
426 49 0.8
426 52 0.8
426 55 0.8
426 66 -0.3
427 7 -0.2
427 38 -0.9
427 52 -0.8
427 60 0.3
427 63 0.3
427 66 0.3
428 10 -0.88
428 19 0.68
428 22 0.68
428 25 0.68
428 32 -0.81
428 46 -0.71
428 60 -0.66
429 1 -0.69
429 13 -0.88
429 19 -0.68
429 32 0.81
429 35 0.81
429 38 0.81
429 41 0.81
429 49 -0.71
429 63 -0.66
430 4 -0.69
430 16 -0.88
430 22 -0.68
430 35 -0.81
430 46 0.71
430 49 0.71
430 52 0.71
430 55 0.71
430 66 -0.66
431 7 -0.69
431 25 -0.68
431 38 -0.81
431 52 -0.71
431 60 0.66
431 63 0.66
431 66 0.66
432 19 0.01
432 22 0.01
432 25 0.01
432 32 -0.9
432 46 -0.8
432 60 -0.4
433 1 -0.18
433 19 -0.01
433 32 0.9
433 35 0.9
433 38 0.9
433 41 0.9
433 49 -0.8
433 63 -0.4
434 4 -0.18
434 22 -0.01
434 35 -0.9
434 46 0.8
434 49 0.8
434 52 0.8
434 55 0.8
434 66 -0.4
435 7 -0.18
435 25 -0.01
435 38 -0.9
435 52 -0.8
435 60 0.4
435 63 0.4
435 66 0.4
436 11 -0.9
437 12 -0.9
438 2 -0.7
438 14 -0.9
439 3 -0.7
439 15 -0.9
440 5 -0.7
440 17 -0.9
441 6 -0.7
441 18 -0.9
442 8 -0.7
443 9 -0.7
444 11 -0.01
445 12 -0.01
446 2 -0.2
446 14 -0.01
447 3 -0.2
447 15 -0.01
448 5 -0.2
448 17 -0.01
449 6 -0.2
449 18 -0.01
450 8 -0.2
451 9 -0.2
452 11 -0.88
453 12 -0.88
454 2 -0.69
454 14 -0.88
455 3 -0.69
455 15 -0.88
456 5 -0.69
456 17 -0.88
457 6 -0.69
457 18 -0.88
458 8 -0.69
459 9 -0.69
460 2 -0.18
461 3 -0.18
462 5 -0.18
463 6 -0.18
464 8 -0.18
465 9 -0.18
1.79769313486232E+308 # value for infinity
-1.79769313486232E+308 # default left-hand-side value
95 # number of non-default left-hand-sides
1 1.9
2 1.8
3 0.3
4 1.8
5 1.3
6 0.2
7 -0.35
8 0.1
9 0.7
10 0.8
11 0.3
12 0.0
13 0.0
14 0.0
15 0.0
16 0.0
17 0.0
18 0.0
19 0.0
20 -0.44
21 -0.77
22 0.69
23 -0.8
152 -0.9
153 -0.9
154 -0.9
155 -0.9
156 -0.9
157 -0.9
158 -0.9
159 -0.9
160 -1.0
161 -1.0
162 -1.0
163 -1.0
164 -1.0
165 -1.0
166 -1.0
167 -1.0
168 -0.92
169 -0.92
170 -0.92
171 -0.92
172 -0.92
173 -0.92
174 -0.92
175 -0.92
420 0.21
421 1.44
422 0.91
423 0.14
424 0.0
425 1.62
426 1.04
427 0.06
428 0.204
429 1.458
430 0.923
431 0.132
432 0.003
433 1.62
434 1.04
435 0.08
436 0.0
437 0.0
438 0.0
439 0.0
440 0.0
441 0.0
442 0.0
443 0.0
444 0.0
445 0.0
446 0.0
447 0.0
448 0.0
449 0.0
450 0.0
451 0.0
452 0.0
453 0.0
454 0.0
455 0.0
456 0.0
457 0.0
458 0.0
459 0.0
460 0.0
461 0.0
462 0.0
463 0.0
464 0.0
465 0.0
466 0.0
467 0.0
1.0 # default right-hand-side value
223 # number of non-default right-hand-sides
1 1.9
2 1.8
3 0.3
4 1.8
5 1.3
6 0.2
7 -0.35
8 0.1
9 0.7
10 0.8
11 0.3
12 0.0
13 0.0
14 0.0
15 0.0
16 0.0
17 0.0
18 0.0
19 0.0
20 -0.44
21 -0.77
22 0.69
23 -0.8
24 0.0
25 0.0
26 0.0
27 0.0
28 0.0
29 0.0
30 0.0
31 0.0
32 0.0
33 0.0
34 0.0
35 0.0
36 0.0
37 0.0
38 0.0
39 0.0
40 0.0
41 0.0
42 0.0
43 0.0
44 0.0
45 0.0
46 0.0
47 0.0
48 0.0
49 0.0
50 0.0
51 0.0
52 0.0
53 0.0
54 0.0
55 0.0
56 0.0
57 0.0
58 0.0
59 0.0
60 0.0
61 0.0
62 0.0
63 0.0
64 0.0
65 0.0
66 0.0
67 0.0
68 0.0
69 0.0
70 0.0
71 0.0
72 0.0
73 0.0
74 0.0
75 0.0
76 0.0
77 0.0
78 0.0
79 0.0
80 0.0
81 0.0
82 0.0
83 0.0
84 0.0
85 0.0
86 0.0
87 0.0
88 0.0
89 0.0
90 0.0
91 0.0
92 0.0
93 0.0
94 0.0
95 0.0
96 -0.7
97 -0.7
98 -0.7
99 -0.7
100 -0.7
101 -0.7
102 -0.7
103 -0.7
104 0.0
105 0.0
106 0.0
107 0.0
108 0.0
109 0.0
110 0.0
111 0.0
112 0.0
113 0.0
114 0.0
115 0.0
116 0.0
117 0.0
118 0.0
119 0.0
120 -0.66
121 -0.66
122 -0.66
123 -0.66
124 -0.66
125 -0.66
126 -0.66
127 -0.66
128 -0.66
129 -0.66
130 -0.66
131 -0.66
132 -0.66
133 -0.66
134 -0.66
135 -0.66
136 0.0
137 0.0
138 0.0
139 0.0
140 0.0
141 0.0
142 0.0
143 0.0
144 0.0
145 0.0
146 0.0
147 0.0
148 0.0
149 0.0
150 0.0
151 0.0
152 1.79769313486232E+308
153 1.79769313486232E+308
154 1.79769313486232E+308
155 1.79769313486232E+308
156 1.79769313486232E+308
157 1.79769313486232E+308
158 1.79769313486232E+308
159 1.79769313486232E+308
160 1.79769313486232E+308
161 1.79769313486232E+308
162 1.79769313486232E+308
163 1.79769313486232E+308
164 1.79769313486232E+308
165 1.79769313486232E+308
166 1.79769313486232E+308
167 1.79769313486232E+308
168 1.79769313486232E+308
169 1.79769313486232E+308
170 1.79769313486232E+308
171 1.79769313486232E+308
172 1.79769313486232E+308
173 1.79769313486232E+308
174 1.79769313486232E+308
175 1.79769313486232E+308
420 0.21
421 1.44
422 0.91
423 0.14
424 0.0
425 1.62
426 1.04
427 0.06
428 0.204
429 1.458
430 0.923
431 0.132
432 0.003
433 1.62
434 1.04
435 0.08
436 0.0
437 0.0
438 0.0
439 0.0
440 0.0
441 0.0
442 0.0
443 0.0
444 0.0
445 0.0
446 0.0
447 0.0
448 0.0
449 0.0
450 0.0
451 0.0
452 0.0
453 0.0
454 0.0
455 0.0
456 0.0
457 0.0
458 0.0
459 0.0
460 0.0
461 0.0
462 0.0
463 0.0
464 0.0
465 0.0
466 0.0
467 0.0
0.0 # default variable lower bound value
24 # number of non-default variable lower bounds
73 0.7
74 0.7
75 0.7
76 0.7
81 0.66
82 0.66
83 0.66
84 0.66
184 0.7
185 0.7
186 0.7
187 0.7
188 0.7
189 0.7
190 0.7
191 0.7
200 0.66
201 0.66
202 0.66
203 0.66
204 0.66
205 0.66
206 0.66
207 0.66
1.0 # default variable upper bound value
47 # number of non-default variable upper bounds
77 0.9
78 0.9
79 0.9
80 0.9
85 0.92
86 0.92
87 0.92
88 0.92
159 2.0
160 2.0
161 2.0
162 2.0
163 2.0
164 2.0
165 2.0
166 2.0
167 2.0
168 2.0
169 2.0
170 2.0
171 2.0
172 2.0
173 2.0
174 2.0
175 2.0
176 2.0
177 2.0
178 2.0
179 2.0
180 2.0
181 2.0
192 0.9
193 0.9
194 0.9
195 0.9
196 0.9
197 0.9
198 0.9
199 0.9
208 0.92
209 0.92
210 0.92
211 0.92
212 0.92
213 0.92
214 0.92
215 0.92
0 # default variable type
72 # number of non-default variable types
89 1
90 1
91 1
92 1
93 1
94 1
95 1
96 1
97 1
98 1
99 1
100 1
101 1
102 1
103 1
104 1
105 1
106 1
107 1
108 1
109 1
110 1
111 1
112 1
113 1
114 1
115 1
116 1
117 1
118 1
119 1
120 1
121 1
122 1
123 1
124 1
125 1
126 1
127 1
128 1
129 1
130 1
131 1
132 1
133 1
134 1
135 1
136 1
137 1
138 1
139 1
140 1
141 1
142 1
143 1
144 1
145 1
146 1
147 1
148 1
149 1
150 1
151 1
152 1
153 1
154 1
155 1
156 1
157 1
158 1
182 1
183 1
0.0 # default variable primal value in starting point
24 # number of non-default variable primal values in starting point
73 0.7
74 0.7
75 0.7
76 0.7
81 0.66
82 0.66
83 0.66
84 0.66
184 0.7
185 0.7
186 0.7
187 0.7
188 0.7
189 0.7
190 0.7
191 0.7
200 0.66
201 0.66
202 0.66
203 0.66
204 0.66
205 0.66
206 0.66
207 0.66
0.0 # default constraint dual value in starting point
0 # number of non-default constraint dual values in starting point
0.0 # default variable bound dual value in starting point
0 # number of non-default variable bound dual values in starting point
0 # number of non-default variable names
0 # number of non-default constraint names
